Set parameter Username
Academic license - for non-commercial use only - expires 2022-06-20
Set parameter LazyConstraints to value 1
Gurobi Optimizer version 9.5.1 build v9.5.1rc2 (mac64[x86])
Thread count: 2 physical cores, 4 logical processors, using up to 4 threads
Optimize a model with 1681 rows, 1600 columns and 6360 nonzeros
Model fingerprint: 0x45c48d37
Variable types: 0 continuous, 1600 integer (1600 binary)
Coefficient statistics:
  Matrix range     [1e+00, 5e+02]
  Objective range  [1e+00, 8e+00]
  Bounds range     [1e+00, 1e+00]
  RHS range        [1e+00, 8e+00]
Presolve removed 58 rows and 0 columns
Presolve time: 0.02s
Presolved: 1623 rows, 1600 columns, 6365 nonzeros
Variable types: 0 continuous, 1600 integer (1600 binary)

Root relaxation: objective 3.458723e+01, 448 iterations, 0.04 seconds (0.02 work units)

    Nodes    |    Current Node    |     Objective Bounds      |     Work
 Expl Unexpl |  Obj  Depth IntInf | Incumbent    BestBd   Gap | It/Node Time

     0     0   34.58723    0  135          -   34.58723      -     -    0s
     0     0   34.74124    0  141          -   34.74124      -     -    1s
     0     0   34.89777    0  129          -   34.89777      -     -    1s
     0     0   35.30670    0  133          -   35.30670      -     -    1s
     0     0   35.40305    0  145          -   35.40305      -     -    1s
     0     0   35.40317    0  143          -   35.40317      -     -    1s
     0     0   35.44008    0  141          -   35.44008      -     -    1s
     0     0   35.44304    0  141          -   35.44304      -     -    1s
     0     0   35.44304    0  141          -   35.44304      -     -    1s
     0     2   35.50069    0  141          -   35.50069      -     -    2s
H   57    66                      36.7279221   35.58817  3.10%  31.3    2s
H  168   117                      36.5563492   35.69940  2.34%  27.5    2s
H  242   108                      36.1421356   35.73743  1.12%  27.3    2s

Cutting planes:
  MIR: 15
  StrongCG: 14
  GUB cover: 15
  Zero half: 4
  Lazy constraints: 255

Explored 578 nodes (14268 simplex iterations) in 3.21 seconds (1.52 work units)
Thread count was 4 (of 4 available processors)

Solution count 3: 36.1421 36.5563 36.7279 

Optimal solution found (tolerance 1.00e-04)
Best objective 3.614213562373e+01, best bound 3.614213562373e+01, gap 0.0000%

User-callback calls 2369, time in user-callback 1.16 sec
cuts :  282
